NAME : LPS-n31-m241
COMMENT : (Lartu-Peter-Santi Plot, instance 11441 out of 39200. 31 customers.)
TYPE : CVRP
DIMENSION : 31
EDGE_WEIGHT_TYPE : EUC_2D
CAPACITY : 92
NODE_COORD_SECTION
 1 56 25
 2 0 21
 3 20 45
 4 88 15
 5 28 14
 6 34 9
 7 42 38
 8 45 31
 9 96 98
 10 82 98
 11 58 5
 12 91 62
 13 58 23
 14 37 77
 15 92 31
 16 25 79
 17 95 18
 18 19 23
 19 86 52
 20 56 67
 21 99 4
 22 100 68
 23 52 73
 24 80 98
 25 50 92
 26 48 96
 27 3 78
 28 59 15
 29 84 77
 30 57 19
 31 88 10
DEMAND_SECTION
1 0
2 24
3 67
4 58
5 30
6 59
7 78
8 31
9 65
10 6
11 11
12 81
13 39
14 53
15 46
16 40
17 77
18 43
19 51
20 45
21 44
22 13
23 10
24 44
25 23
26 89
27 36
28 44
29 8
30 11
31 47
DEPOT_SECTION
 1
 -1
EOF
